z3/118.out
STDOUT:
sat
(
  (define-fun inv ((x!0 Int) (x!1 Int) (x!2 Int)) Bool
    (let ((a!1 (not (>= (+ x!0 (* (- 1) x!1)) 2)))
          (a!2 (not (>= (+ x!1 (* (- 1) x!0)) 0)))
          (a!3 (or (<= x!1 0) (<= (+ x!1 (* (- 1) x!2)) 0))))
      (and a!1 (>= x!1 0) a!2 a!3)))
)


STDERR:
